(set-logic ALL)
(set-option :produce-models true)
(declare-sort BoundSet 0)
(declare-sort UnboundSet 0)
(set-option :finite-model-find true)
(declare-fun IsProtected (BoundSet) Bool)
(declare-fun IsSparedPain (BoundSet) Bool)
(declare-fun CausesPain (BoundSet) Bool)
(assert (not (=> (exists ((a BoundSet)) (IsProtected a)) (exists ((b BoundSet)) (exists ((d BoundSet)) (exists ((c BoundSet)) (and (IsSparedPain b) (and (not (CausesPain c)) (not (CausesPain d))))))))))
(check-sat)
(get-model)